p cnf 100 20
x -1 2 -5 -6 -7 -9 10 11 12 -15 16 17 19 26 -32 35 36 37 -38 40 43 47 48 49 -50 55 -56 -57 -59 60 -63 -64 -65 66 67 -68 69 -70 -72 73 -75 79 81 -83 85 86 -89 -90 -92 -93 -95 -96 -99 0
x -1 -5 7 9 -11 -12 14 -15 -16 -17 22 -25 29 -32 -34 -39 -41 42 -43 -54 56 59 64 -67 -69 71 73 74 -77 -78 -79 -80 84 -85 86 87 -89 90 91 -92 -93 94 -96 98 0
x -2 -5 6 7 8 -10 -13 -15 -19 20 21 22 26 32 33 34 35 36 -37 -42 -44 -45 -46 47 -48 49 51 53 54 -55 -61 -62 -63 -64 -67 -68 -73 75 77 -78 -79 84 -88 89 -91 92 93 94 -99 -100 0
x 3 -4 -7 -8 -10 -11 13 17 -18 20 -21 -22 -25 31 32 -33 -37 42 44 45 -46 48 -53 55 -56 59 -61 62 67 69 70 -71 -73 -74 -75 -77 79 81 82 -85 87 91 -93 -96 -98 99 0
x -3 -4 -6 -12 -16 17 18 -19 -21 22 -23 24 -25 -28 -30 -32 -33 36 38 -41 45 -47 49 52 -56 58 60 61 -67 71 -72 73 75 76 77 79 -80 81 82 84 -85 -86 -88 89 -90 -93 94 -96 -97 0
x -3 4 5 -6 -7 9 -12 14 15 -16 19 22 23 25 -27 29 30 -38 -39 43 44 46 48 49 51 -52 54 55 56 -57 62 -64 65 -67 -68 69 -70 -74 76 77 -78 -81 -83 -86 87 -88 -89 91 -92 94 -95 100 0
x 1 -2 3 -4 6 8 -10 13 21 24 26 28 -29 32 -33 -35 36 38 39 40 42 -44 45 46 48 51 53 -56 57 60 62 63 -64 -66 67 76 77 79 80 -81 -86 87 89 -90 99 0
x 1 2 3 -4 -6 -11 -12 -13 14 -16 -19 20 -21 -22 24 25 27 28 -29 -30 -33 34 36 -37 38 -39 42 44 45 47 -49 -50 53 -54 -56 57 -59 -60 61 -63 -64 -68 -69 -73 -74 75 76 -77 79 -81 -83 -84 86 -87 88 89 90 93 -94 -95 -96 98 -99 -100 0
x 4 5 -7 9 10 12 13 -14 15 -16 17 -20 -21 -23 -27 28 29 -32 -34 -36 38 40 41 46 -48 49 -55 -57 60 -62 63 -64 -69 -70 71 -73 74 77 -79 80 83 84 -85 86 -88 -89 94 95 99 0
x 1 2 3 4 8 11 12 -16 18 19 20 21 23 -26 29 -33 -39 40 43 -44 47 48 49 -50 54 -58 60 -61 62 63 64 68 -69 -71 74 76 80 -81 -87 89 -91 93 95 -96 -97 0
x 2 -3 4 -5 -8 -9 19 20 24 26 27 -28 30 32 -34 35 37 39 42 -43 44 49 -51 52 53 54 -56 58 -60 61 -62 67 68 -69 -72 -74 -75 -76 -80 83 -84 -86 87 88 90 93 -97 98 0
x -1 -2 -3 4 5 7 -9 -15 -18 -19 20 23 24 -30 32 33 -34 36 -37 -43 46 47 55 -56 -61 -63 64 -65 -67 -69 -76 78 -79 80 82 84 -86 88 89 -90 -94 95 -96 -97 -98 100 0
x 1 -2 -3 -8 -12 13 -18 21 23 25 26 30 32 34 -36 39 40 -41 -42 -43 44 45 47 48 50 -54 59 62 -63 -64 -65 -66 72 73 -74 78 -79 80 -82 86 -88 -90 98 99 0
x 1 -3 4 -8 -9 -10 12 -15 -19 -22 23 -25 -26 -27 29 30 -31 32 -33 34 -35 37 -39 40 -41 45 46 47 -48 51 -52 53 54 57 -59 62 -63 -64 -67 -68 69 70 72 76 -78 80 81 83 -84 85 -86 -87 88 -99 100 0
x -1 2 -3 7 -8 -10 -12 14 16 18 20 -22 23 24 -26 -27 -29 30 -31 -32 33 -34 35 -36 37 38 -39 -42 44 -46 -48 50 52 56 58 60 -61 -62 -66 -68 70 71 72 73 74 -76 79 -81 -82 -83 -84 -89 -93 95 97 99 -100 0
x 1 -6 7 13 16 17 -19 -20 -22 23 25 -26 27 -28 -30 -31 32 33 34 -36 -40 -43 -44 -45 48 49 -50 56 59 62 64 66 -67 -68 72 -73 -74 -75 78 80 81 82 -84 -86 -89 90 94 95 -99 0
x 2 3 -5 6 9 10 12 -15 17 18 -19 21 -23 -28 29 -30 32 33 35 37 -38 -39 40 44 46 -47 -48 50 52 -53 54 -55 -56 58 60 -62 -65 66 68 71 72 -73 76 -77 -85 -88 -90 91 -92 94 -95 -97 100 0
x -2 4 5 -8 -12 14 16 -18 -19 21 22 23 27 29 -30 31 33 34 35 -37 40 47 -49 -52 -54 -57 58 -61 62 67 -68 -70 72 73 -74 -76 -77 79 -82 83 84 86 -87 89 90 92 -93 94 95 -96 -100 0
x 1 2 4 5 -7 8 10 -14 15 -18 -19 -23 28 -29 -34 -35 39 41 -43 -45 -47 49 -50 51 -54 -57 -58 59 62 67 -69 -71 72 -73 74 77 -78 -81 -82 -83 -86 90 92 -94 -95 96 -97 -100 0
x -2 4 -7 12 13 -16 -17 19 -20 -21 22 24 25 -26 27 28 -31 -32 33 38 41 43 48 49 -51 52 55 57 60 62 64 66 -68 69 -71 78 79 -80 85 -86 87 -88 -89 -92 96 -97 98 -99 100 0
g -40